Route #1: 1 44 10 22 46 25 50 15 23 49 9 1 
Route #2: 1 1 20 21 45 47 24 30 1 
Route #3: 1 35 3 19 33 48 6 43 4 38 1 
Route #4: 1 34 2 40 16 13 28 26 1 
Route #5: 1 17 39 18 36 5 1 
Route #6: 1 29 42 14 7 11 1 
Route #7: 1 41 27 32 37 31 12 8 1 

Cost 1547.75
Time 0.3940


 * Another infos *

 Iterations: 51 Time: 0.3940 sec - 0.0066 min - 0.0001 horas
0.0000 h 0.0066 min
Problem dimension: 51
